Solver command line: []

Read LP format model from file C:\Users\wlhlm\AppData\Local\Temp\tmpdaypiawh.pyomo.lp
Reading time = 44.38 seconds
objective: 1002984 rows, 875999 columns, 78984486 nonzeros
Set parameter MIPGap to value 0.03
Gurobi Optimizer version 12.0.1 build v12.0.1rc0 (win64 - Windows 11.0 (26100.2))

CPU model: Intel(R) Core(TM) Ultra 7 258V, instruction set [SSE2|AVX|AVX2]
Thread count: 8 physical cores, 8 logical processors, using up to 8 threads

Non-default parameters:
MIPGap  0.03

Optimize a model with 1002984 rows, 875999 columns and 78984486 nonzeros
Model fingerprint: 0x66b8b1fe
Model has 8759 quadratic constraints
Variable types: 753360 continuous, 122639 integer (105120 binary)
Coefficient statistics:
  Matrix range     [7e-03, 2e+02]
  QMatrix range    [1e+00, 1e+00]
  Objective range  [1e-02, 5e+02]
  Bounds range     [1e+00, 3e+00]
  RHS range        [8e-05, 1e+04]
Presolve removed 157680 rows and 122640 columns (presolve time = 12s)...
Presolve removed 617548 rows and 494907 columns (presolve time = 16s)...
Presolve removed 656935 rows and 529949 columns (presolve time = 20s)...
Presolve removed 696804 rows and 554397 columns (presolve time = 25s)...
Presolve removed 696813 rows and 556976 columns (presolve time = 30s)...
Presolve removed 702103 rows and 559696 columns (presolve time = 35s)...
Presolve removed 702103 rows and 559696 columns (presolve time = 43s)...
Presolve removed 702103 rows and 559696 columns (presolve time = 46s)...
Presolve removed 710862 rows and 559696 columns (presolve time = 55s)...
Presolve removed 710862 rows and 559696 columns (presolve time = 58s)...
Presolve removed 710862 rows and 559697 columns (presolve time = 60s)...
Presolve removed 710862 rows and 559697 columns (presolve time = 67s)...
Presolve removed 806379 rows and 663858 columns
Presolve time: 68.36s
Presolved: 196605 rows, 212141 columns, 619647 nonzeros
Variable types: 148981 continuous, 63160 integer (63160 binary)
Performing another presolve...
Presolve removed 52556 rows and 52558 columns (presolve time = 6s)...
Presolve removed 52556 rows and 52558 columns
Presolve time: 6.28s
Deterministic concurrent LP optimizer: primal and dual simplex
Showing primal log only...


Root simplex log...

Iteration    Objective       Primal Inf.    Dual Inf.      Time
       0    5.4128987e+07   3.384935e+07   4.879259e+13     77s
Concurrent spin time: 0.01s

Solved with dual simplex

Root simplex log...

Iteration    Objective       Primal Inf.    Dual Inf.      Time
   46858    4.4433222e+07   0.000000e+00   0.000000e+00     79s

Root relaxation: objective 4.443322e+07, 46858 iterations, 2.79 seconds (3.76 work units)
Total elapsed time = 79.20s (DegenMoves)
Total elapsed time = 80.02s (DegenMoves)

    Nodes    |    Current Node    |     Objective Bounds      |     Work
 Expl Unexpl |  Obj  Depth IntInf | Incumbent    BestBd   Gap | It/Node Time

     0     0 4.4433e+07    0  515          - 4.4433e+07      -     -   82s
H    0     0                    4.468100e+07 4.4433e+07  0.55%     -   83s

Explored 1 nodes (54816 simplex iterations) in 84.32 seconds (64.88 work units)
Thread count was 8 (of 8 available processors)

Solution count 1: 4.4681e+07 

Optimal solution found (tolerance 3.00e-02)
Best objective 4.468100001136e+07, best bound 4.443322170745e+07, gap 0.5545%

